w = 60;
n = 73;
measures = [|34, 6,
|13, 3,
|13, 5,
|10, 12,
|10, 12,
|6, 7,
|6, 15,
|25, 7,
|25, 15,
|21, 12,
|16, 7,
|16, 5,
|21, 3,
|21, 5,
|5, 7,
|5, 5,
|4, 1,
|4, 10,
|6, 13,
|12, 13,
|12, 9,
|23, 6,
|7, 3,
|7, 5,
|2, 1,
|2, 10,
|6, 6,
|6, 5,
|14, 7,
|14, 6,
|16, 3,
|16, 5,
|14, 6,
|14, 5,
|14, 13,
|3, 2,
|3, 7,
|11, 2,
|11, 7,
|6, 7,
|6, 6,
|33, 14,
|12, 4,
|12, 3,
|16, 18,
|12, 3,
|12, 18,
|4, 4,
|4, 3,
|3, 1,
|3, 2,
|6, 9,
|6, 9,
|6, 1,
|6, 2,
|5, 7,
|5, 18,
|3, 9,
|3, 9,
|9, 18,
|6, 5,
|6, 2,
|2, 12,
|2, 9,
|8, 3,
|8, 9,
|10, 9,
|3, 5,
|3, 2,
|3, 18,
|3, 7,
|2, 3,
|2, 9,
|];
initial_x = [0, 34, 47, 0, 10, 20, 26, 32, 0, 25, 0, 16, 32, 0, 21, 26, 31, 35, 39, 45, 0, 12, 35, 42, 49, 51, 53, 0, 6, 20, 34, 0, 16, 30, 44, 0, 3, 6, 17, 28, 34, 0, 33, 45, 0, 16, 28, 40, 44, 48, 51, 54, 0, 6, 12, 18, 23, 28, 31, 34, 43, 49, 55, 57, 0, 8, 16, 26, 29, 32, 35, 38, 40];
initial_y = [0, 0, 0, 6, 6, 6, 6, 6, 21, 21, 36, 36, 36, 43, 43, 43, 43, 43, 43, 43, 56, 56, 56, 56, 56, 56, 56, 66, 66, 66, 66, 73, 73, 73, 73, 86, 86, 86, 86, 86, 86, 93, 93, 93, 107, 107, 107, 107, 107, 107, 107, 107, 125, 125, 125, 125, 125, 125, 125, 125, 125, 125, 125, 125, 143, 143, 143, 143, 143, 143, 143, 143, 143];